db/data/997167103411309341096517280919624349.z3.out
-------------------
2500.093576341
